RT is False
Default write of storage_offers_DA.csv just to have a file (but constraint should be inactive)
Reading model...
...model read.
creating competitive generators file...
...competitive generators recorded.
Loading data...
.. day-ahead data with real-time VRE data read.
Compiling instance...
...instance created.
Creating Offer Mitigation (model will solve as dispatch if TRUE)...
Solving...

Welcome to IBM(R) ILOG(R) CPLEX(R) Interactive Optimizer 12.9.0.0
  with Simplex, Mixed Integer & Barrier Optimizers
5725-A06 5725-A29 5724-Y48 5724-Y49 5724-Y54 5724-Y55 5655-Y21
Copyright IBM Corp. 1988, 2019.  All Rights Reserved.

Type 'help' for a list of available commands.
Type 'help' followed by a command name for more
information on commands.

CPLEX> Logfile 'cplex.log' closed.
Logfile 'C:\Users\Luke\Desktop\test919\logs\tmp73qc2xwn.cplex.log' open.
CPLEX> New value for parallel optimization mode: -1
CPLEX> New value for mixed integer optimality gap tolerance: 0.01
CPLEX> New value for integrality tolerance: 1e-09
CPLEX> New value for feasibility tolerance: 0.01
CPLEX> New value for deterministic time limit in ticks: 75000
CPLEX> Problem 'C:\Users\Luke\Desktop\test919\logs\tmpr42_heu4.pyomo.lp' read.
Read time = 0.05 sec. (3.04 ticks)
CPLEX> Problem name         : C:\Users\Luke\Desktop\test919\logs\tmpr42_heu4.pyomo.lp
Objective sense      : Minimize
Variables            :   26081  [Nneg: 1,  Box: 21616,  Free: 4464]
Objective nonzeros   :    2496
Linear constraints   :   27515  [Less: 14006,  Greater: 4416,  Equal: 9093]
  Nonzeros           :   89219
  RHS nonzeros       :   12271

Variables            : Min LB: -5000.000        Max UB: 1000000.       
Objective nonzeros   : Min   : 15.73158         Max   : 124.0997       
Linear constraints   :
  Nonzeros           : Min   : 0.8500000        Max   : 3000.000       
  RHS nonzeros       : Min   : 0.008333333      Max   : 5000.000       
CPLEX> CPXPARAM_Parallel                                -1
CPXPARAM_Simplex_Tolerances_Feasibility          0.01
CPXPARAM_DetTimeLimit                            75000
CPXPARAM_MIP_Tolerances_MIPGap                   0.01
CPXPARAM_MIP_Tolerances_Integrality              1.0000000000000001e-09
Parallel mode: opportunistic, using up to 12 threads for concurrent optimization.
Tried aggregator 1 time.
LP Presolve eliminated 21377 rows and 15487 columns.
Aggregator did 747 substitutions.
Reduced LP has 5391 rows, 9847 columns, and 31786 nonzeros.
Presolve time = 0.05 sec. (30.20 ticks)
Symmetry aggregator did 5563 additional substitutions.

Iteration log . . .
Iteration:     1   Dual objective     =             0.000000
Perturbation started.
Iteration:   101   Dual objective     =             0.000000
Iteration:   329   Dual objective     =             1.166435
Iteration:   599   Dual objective     =             1.788912
Iteration:   854   Dual objective     =             1.923998
Iteration:  1053   Dual objective     =             2.038764
Iteration:  1327   Dual objective     =             2.089753
Iteration:  1584   Dual objective     =             2.122435
Iteration:  1807   Dual objective     =          2289.147375
Iteration:  2032   Dual objective     =         22660.441012
Iteration:  2220   Dual objective     =         54838.318194
Iteration:  2430   Dual objective     =        110203.687775
Iteration:  2702   Dual objective     =        125806.994066
Iteration:  3066   Dual objective     =        130786.373265
Removing perturbation.
Dual superbasis not built.
Using devex.

Primal simplex solved model.


Primal simplex - Optimal:  Objective =  1.3080117158e+05
Solution time =    0.11 sec.  Iterations = 1597 (1064)
Deterministic time = 79.68 ticks  (724.33 ticks/sec)

CPLEX> Solution written to file 'C:\Users\Luke\Desktop\test919\logs\tmpptmyd_eq.cplex.sol'.
CPLEX> Exporting results... 
...storage offer mitigation file created
Converting model to MPEC...
...converted
NOTE: initial MIP solve with only storage competitive to get feasible solution
Solving...

Welcome to IBM(R) ILOG(R) CPLEX(R) Interactive Optimizer 12.9.0.0
  with Simplex, Mixed Integer & Barrier Optimizers
5725-A06 5725-A29 5724-Y48 5724-Y49 5724-Y54 5724-Y55 5655-Y21
Copyright IBM Corp. 1988, 2019.  All Rights Reserved.

Type 'help' for a list of available commands.
Type 'help' followed by a command name for more
information on commands.

CPLEX> Logfile 'cplex.log' closed.
Logfile 'C:\Users\Luke\Desktop\test919\logs\tmp_dwfny56.cplex.log' open.
CPLEX> New value for parallel optimization mode: -1
CPLEX> New value for mixed integer optimality gap tolerance: 0.01
CPLEX> New value for integrality tolerance: 1e-09
CPLEX> New value for feasibility tolerance: 0.01
CPLEX> New value for deterministic time limit in ticks: 75000
CPLEX> Problem 'C:\Users\Luke\Desktop\test919\logs\tmpe9izonp0.pyomo.lp' read.
Read time = 0.20 sec. (14.78 ticks)
CPLEX> Problem name         : C:\Users\Luke\Desktop\test919\logs\tmpe9izonp0.pyomo.lp
Objective sense      : Maximize
Variables            :   53805  [Nneg: 1,  Box: 22000,  Free: 4464,
                                 Binary: 27340]
Objective nonzeros   :    9029
Linear constraints   :  123205  [Less: 41346,  Greater: 59096,  Equal: 22763]
  Nonzeros           :  291753
  RHS nonzeros       :   67423

Variables            : Min LB: -5000.000        Max UB: 1000000.       
Objective nonzeros   : Min   : 0.008333333      Max   : 2500.000       
Linear constraints   :
  Nonzeros           : Min   : 0.008333333      Max   : 1000000.       
  RHS nonzeros       : Min   : 0.008333333      Max   : 1000000.       
CPLEX> CPXPARAM_Parallel                                -1
CPXPARAM_Simplex_Tolerances_Feasibility          0.01
CPXPARAM_DetTimeLimit                            75000
CPXPARAM_MIP_Tolerances_MIPGap                   0.01
CPXPARAM_MIP_Tolerances_Integrality              1.0000000000000001e-09
Tried aggregator 3 times.
MIP Presolve eliminated 88638 rows and 18962 columns.
MIP Presolve added 3376 rows and 0 columns.
MIP Presolve modified 24807 coefficients.
Aggregator did 12981 substitutions.
Reduced MIP has 24962 rows, 21306 columns, and 71183 nonzeros.
Reduced MIP has 8422 binaries, 0 generals, 0 SOSs, and 0 indicators.
Presolve time = 0.23 sec. (173.41 ticks)
Probing fixed 419 vars, tightened 2903 bounds.
Probing time = 1.58 sec. (899.01 ticks)
Tried aggregator 2 times.
MIP Presolve eliminated 948 rows and 840 columns.
MIP Presolve modified 2213 coefficients.
Aggregator did 37 substitutions.
Reduced MIP has 23977 rows, 20429 columns, and 68326 nonzeros.
Reduced MIP has 8003 binaries, 0 generals, 0 SOSs, and 0 indicators.
Presolve time = 0.09 sec. (69.68 ticks)
Probing time = 0.05 sec. (16.35 ticks)
Clique table members: 6370.
MIP emphasis: balance optimality and feasibility.
MIP search method: dynamic search.
Parallel mode: opportunistic, using up to 12 threads.
Root relaxation solution time = 0.50 sec. (573.79 ticks)

        Nodes                                         Cuts/
   Node  Left     Objective  IInf  Best Integer    Best Bound    ItCnt     Gap

      0     0        0.0000   706                      0.0000     7296         
*     0+    0                            0.0000        0.0000             0.00%
      0     0        cutoff              0.0000        0.0000     7296    0.00%
Elapsed time = 3.36 sec. (2193.50 ticks, tree = 0.01 MB, solutions = 1)

Root node processing (before b&c):
  Real time             =    3.38 sec. (2195.44 ticks)
Parallel b&c, 12 threads:
  Real time             =    0.00 sec. (0.00 ticks)
  Sync time (average)   =    0.00 sec.
  Wait time (average)   =    0.00 sec.
                          ------------
Total (root+branch&cut) =    3.38 sec. (2195.44 ticks)

Solution pool: 1 solution saved.

MIP - Integer optimal solution:  Objective =  3.8708094507e-09
Solution time =    3.38 sec.  Iterations = 7296  Nodes = 0
Deterministic time = 2195.60 ticks  (650.55 ticks/sec)

CPLEX> Incumbent solution written to file 'C:\Users\Luke\Desktop\test919\logs\tmpbyeir4xf.cplex.sol'.
CPLEX> NOTE: no warmstart specified for MIP iteration, default behavior is true
NOTE: resolving with all competitive generators using storage-only solution to warmstart
Solving...

Welcome to IBM(R) ILOG(R) CPLEX(R) Interactive Optimizer 12.9.0.0
  with Simplex, Mixed Integer & Barrier Optimizers
5725-A06 5725-A29 5724-Y48 5724-Y49 5724-Y54 5724-Y55 5655-Y21
Copyright IBM Corp. 1988, 2019.  All Rights Reserved.

Type 'help' for a list of available commands.
Type 'help' followed by a command name for more
information on commands.

CPLEX> Logfile 'cplex.log' closed.
Logfile 'C:\Users\Luke\Desktop\test919\logs\tmpjd55v5hv.cplex.log' open.
CPLEX> New value for parallel optimization mode: -1
CPLEX> New value for mixed integer optimality gap tolerance: 0.01
CPLEX> New value for integrality tolerance: 1e-09
CPLEX> New value for feasibility tolerance: 0.01
CPLEX> New value for deterministic time limit in ticks: 75000
CPLEX> Problem 'C:\Users\Luke\Desktop\test919\logs\tmpk3mertp2.pyomo.lp' read.
Read time = 0.20 sec. (14.81 ticks)
CPLEX> MIP start file 'C:\Users\Luke\Desktop\test919\logs\tmp68jrr2c0.cplex.mst' read.
CPLEX> Problem name         : C:\Users\Luke\Desktop\test919\logs\tmpk3mertp2.pyomo.lp
Objective sense      : Maximize
Variables            :   54525  [Nneg: 1,  Box: 22720,  Free: 4464,
                                 Binary: 27340]
Objective nonzeros   :    9725
Linear constraints   :  123205  [Less: 41346,  Greater: 59096,  Equal: 22763]
  Nonzeros           :  291753
  RHS nonzeros       :   67423

Variables            : Min LB: -5000.000        Max UB: 1000000.       
Objective nonzeros   : Min   : 0.008333333      Max   : 2500.000       
Linear constraints   :
  Nonzeros           : Min   : 0.008333333      Max   : 1000000.       
  RHS nonzeros       : Min   : 0.008333333      Max   : 1000000.       
CPLEX> CPXPARAM_Parallel                                -1
CPXPARAM_Simplex_Tolerances_Feasibility          0.01
CPXPARAM_DetTimeLimit                            75000
CPXPARAM_MIP_Tolerances_MIPGap                   0.01
CPXPARAM_MIP_Tolerances_Integrality              1.0000000000000001e-09
Warning:  No solution found from 1 MIP starts.
Retaining values of one MIP start for possible repair.
Tried aggregator 3 times.
MIP Presolve eliminated 88638 rows and 19682 columns.
MIP Presolve added 3376 rows and 0 columns.
MIP Presolve modified 24807 coefficients.
Aggregator did 12981 substitutions.
Reduced MIP has 24962 rows, 21306 columns, and 71183 nonzeros.
Reduced MIP has 8422 binaries, 0 generals, 0 SOSs, and 0 indicators.
Presolve time = 0.23 sec. (173.77 ticks)
Probing fixed 419 vars, tightened 2903 bounds.
Probing time = 1.55 sec. (899.01 ticks)
Tried aggregator 2 times.
MIP Presolve eliminated 948 rows and 840 columns.
MIP Presolve modified 2213 coefficients.
Aggregator did 37 substitutions.
Reduced MIP has 23977 rows, 20429 columns, and 68326 nonzeros.
Reduced MIP has 8003 binaries, 0 generals, 0 SOSs, and 0 indicators.
Presolve time = 0.09 sec. (69.68 ticks)
Probing time = 0.05 sec. (16.35 ticks)
Clique table members: 6370.
MIP emphasis: balance optimality and feasibility.
MIP search method: dynamic search.
Parallel mode: opportunistic, using up to 12 threads.
Root relaxation solution time = 0.55 sec. (401.51 ticks)

        Nodes                                         Cuts/
   Node  Left     Objective  IInf  Best Integer    Best Bound    ItCnt     Gap

      0     0   177352.1967  1857                 177352.1967     7790         
      0     0   173580.9169   675                   Cuts: 735     8215         
      0     0   173011.8947   588                   Cuts: 316     8361         
      0     0   172864.6858   580                   Cuts: 145     8440         
      0     0   172845.1185   560                   Cuts: 101     8469         
      0     0   172826.2759   542                    Cuts: 84     8495         
      0     0   172826.2759   529                    Cuts: 64     8510         
      0     0   172824.2507   523                    Cuts: 64     8523         
      0     0   172823.4239   514                    Cuts: 55     8539         
      0     0   172822.5971   508                    Cuts: 50     8545         
Repair heuristic found nothing.
      0     2   172822.5971   508                    Cuts: 24     8545         
Elapsed time = 16.36 sec. (7255.91 ticks, tree = 0.02 MB, solutions = 0)
    115    31    infeasible                       166248.9961     9980         
    308    90    infeasible                       166248.9961    15710         
    456   225    infeasible                       166248.9961    23125         
    719   248    25130.3032   395                 166248.9961    23367         
    968   459    -4240.8286   304                 166248.9961    26998         
   1279   624   -10534.5073   298                 166248.9961    28070         
   1540   885    -8384.5103   279                 166248.9961    28915         
   1926   959    -6349.8059   282                 166248.9961    29842         
   2296  1601   -10011.6851   281                 166248.9961    30743         
   4065  3026    -6128.5413   243                 166248.9961    32412         
Elapsed time = 29.31 sec. (10367.60 ticks, tree = 27.70 MB, solutions = 1)
*  4145+ 1907                        -8384.5103   166248.9961              --- 
*  4324  2912      integral     0    -4394.6803   166248.9961    32403     --- 
   5177  1276    -3478.7686   335    -4394.6803   155348.2219    43189     --- 
   5792  1935    infeasible          -4394.6803    43254.1509    62762     --- 
   6341   260    27023.4582    65    -4394.6803    43254.1509    65951     --- 
   6856   867    17499.0851    84    -4394.6803    43254.1509    72473     --- 
   7813  1420     6804.9805    47    -4394.6803    43254.1509    78899     --- 
   8836  2237     3712.3174    43    -4394.6803    43254.1509    84880     --- 
   9854  3253    11649.6718    65    -4394.6803    43254.1509    92387     --- 
  10819  4212    -4244.3928    83    -4394.6803    43254.1509    99593     --- 
  11634  4591     1261.3314    75    -4394.6803    43254.1509   104820     --- 
Elapsed time = 72.78 sec. (23766.65 ticks, tree = 303.90 MB, solutions = 6)
  12449  4784     -192.6127    40     1218.4002    43254.1509   107040     --- 
  13143  4711        cutoff           1218.4002    43254.1509   118101     --- 
  14021  4614     1566.9354    16     1218.4002    43254.1509   115516     --- 
  14893  5439        cutoff           1218.4002    43254.1509   132931     --- 
  15726  5939     7895.0990    50     1218.4002    43254.1509   140829     --- 
  16566  6584    15214.4896    52     1218.4002    43254.1509   151048     --- 
  17502  6712     5228.1645    50     4871.5528    43254.1509   178395  787.89%
  18524  7402    12502.0934    46     4871.5528    43254.1509   195155  787.89%
  19455  7001        cutoff           4871.5528    43254.1509   184837  787.89%
  20056  8156    22452.0779   104     4871.5528    37361.4978   208708  666.93%
Elapsed time = 110.34 sec. (33314.59 ticks, tree = 239.58 MB, solutions = 8)
  21035  7571     6404.2097    47     4871.5528    37066.6973   196835  660.88%
  21998  6919     5729.1614    46     4871.5528    36949.8263   182976  658.48%
  23098  8425     6166.4630    56     4871.5528    36949.8263   210752  658.48%
  24021  8663     5026.3744    44     4871.5528    36949.8263   213923  658.48%
  25139  8591     5934.6594    43     4871.5528    33742.0629   212177  592.63%
  26205  8866     8960.9423    49     4871.5528    32689.4182   215586  571.03%
  27314  8228     7078.3521    63     4871.5528    32689.4182   210178  571.03%
  28239 10402    10329.8280    67     4871.5528    29252.3276   230749  500.47%
  29209 14883    22195.9573    96     4871.5528    28499.2423   267852  485.01%
  30047 14966    11192.6596    67     4871.5528    28499.2423   268413  485.01%
Elapsed time = 148.45 sec. (42859.50 ticks, tree = 296.53 MB, solutions = 8)
  30939 11547    10760.6889    52     4871.5528    27634.3701   241351  467.26%
  31836 15108    22363.8158    94     4871.5528    27634.3701   269459  467.26%
  32651 12341     6109.4940    43     4871.5528    27634.3701   248380  467.26%
  33520 15567     9698.2090    49     4871.5528    27634.3701   273181  467.26%
  34255 12479     6056.3196    48     4871.5528    27634.3701   250014  467.26%
  34985 14737     5085.3891    43     4871.5528    27634.3701   267144  467.26%
  35728 14808     9466.8273    48     4871.5528    27634.3701   267800  467.26%
  36512 15230     5366.5300    11     4871.5528    27634.3701   270553  467.26%
  37209 16098     9932.9359    36     4871.5528    27634.3701   276970  467.26%
* 37359 15530      integral     0    11644.5365    27634.3701   277008  137.32%
  37763 17004    10696.2721    54    11644.5365    27634.3701   284247  137.32%
Elapsed time = 177.41 sec. (52406.03 ticks, tree = 315.24 MB, solutions = 9)
  38220 18469     6465.7403    14    11644.5365    27634.3701   297870  137.32%
  38695 17174    18002.3394    62    11644.5365    27634.3701   285068  137.32%
  39122 17964     5536.3393    38    11644.5365    27634.3701   293586  137.32%
  39524 18049     7892.1273    72    11644.5365    27634.3701   294109  137.32%
  39908 18124     4900.1420    24    11644.5365    27634.3701   294567  137.32%
  40137 18205    24477.2492    96    11644.5365    27634.3701   295091  137.32%
  40388 17411     6911.7353    46    11644.5365    27634.3701   289599  137.32%
  40590 17472    10614.1051    56    11644.5365    27634.3701   290368  137.32%
  40831 18421     7950.8967    71    11644.5365    27634.3701   297023  137.32%
  41062 17618    11939.7390    69    11644.5365    27634.3701   291614  137.32%
Elapsed time = 184.61 sec. (61963.29 ticks, tree = 321.46 MB, solutions = 9)
  41253 17451        cutoff          11644.5365    27634.3701   288985  137.32%
  41437 18640    19558.4800    82    11644.5365    27634.3701   298995  137.32%
  41591 18892     5313.9422    10    11644.5365    27634.3701   301053  137.32%
  41671 18520        cutoff          11644.5365    27634.3701   298482  137.32%
  41689 18893        cutoff          11644.5365    27634.3701   301059  137.32%
  41707 19599        cutoff          11644.5365    27634.3701   306919  137.32%
  41723 18520        cutoff          11644.5365    27634.3701   298490  137.32%
  41742 16879        cutoff          11644.5365    27634.3701   284151  137.32%
  41758 19601        cutoff          11644.5365    27634.3701   306967  137.32%
  41784 18893        cutoff          11644.5365    27634.3701   301076  137.32%
Elapsed time = 186.33 sec. (72529.64 ticks, tree = 331.69 MB, solutions = 9)
  41802 17437        cutoff          11644.5365    27634.3701   288676  137.32%
  41842 18466        cutoff          11644.5365    27634.3701   297860  137.32%

GUB cover cuts applied:  1
Cover cuts applied:  26
Implied bound cuts applied:  7
Flow cuts applied:  319
Mixed integer rounding cuts applied:  26
Gomory fractional cuts applied:  67

Root node processing (before b&c):
  Real time             =   15.69 sec. (7207.32 ticks)
Parallel b&c, 12 threads:
  Real time             =  170.73 sec. (68681.44 ticks)
  Sync time (average)   =    0.69 sec.
  Wait time (average)   =    0.03 sec.
                          ------------
Total (root+branch&cut) =  186.42 sec. (75888.76 ticks)

Solution pool: 9 solutions saved.

MIP - Deterministic time limit exceeded, integer feasible:  Objective =  1.1644536514e+04
Current MIP best bound =  2.7634370145e+04 (gap = 15989.8, 137.32%)
Solution time =  186.45 sec.  Iterations = 343312  Nodes = 41846 (8806)
Deterministic time = 75888.92 ticks  (407.01 ticks/sec)

CPLEX> Incumbent solution written to file 'C:\Users\Luke\Desktop\test919\logs\tmpux07bd58.cplex.sol'.
CPLEX> Exporting results... 
